<instance format="XCSP3" type="CSP">
  <variables>
    <var id="x0"> 5 11 12 14 </var>
    <var id="x1"> 1 4 5 12 14 </var>
    <var id="x2"> 1 5 7 14 </var>
    <var id="x3"> 4 5 12 </var>
    <var id="x4"> 12 14 </var>
    <var id="x5"> 1 5 7 </var>
    <var id="x6"> 4 7 11 </var>
    <var id="x7"> 3 5 12 </var>
    <var id="x8"> 4 6 12 </var>
    <var id="x9"> 3 12 </var>
    <var id="x10"> 1 4..6 12 </var>
    <var id="x11"> 3 5 6 12 </var>
    <var id="x12"> 4 5 7 </var>
    <var id="x13"> 1 5 7 </var>
    <var id="x14"> 0 4 8 11 </var>
    <var id="x15"> 10 14 </var>
    <var id="x16"> 5 10 14 </var>
    <var id="x17"> 4 5 8 10 </var>
    <var id="x18"> 4 5 8 11 </var>
    <var id="x19"> 0 4 8 11 14 </var>
    <var id="x20"> 0 4 10 11 </var>
    <var id="x21"> 3 9 11 12 14 </var>
    <var id="x22"> 6 8 9 11 12 </var>
    <var id="x23"> 3 9 12 14 </var>
    <var id="x24"> 3 8 9 12 </var>
    <var id="x25"> 8 12 14 </var>
    <var id="x26"> 6 12 </var>
    <var id="x27"> 6 8 11 12 14 </var>
    <var id="x28"> 0 4 8 12 </var>
    <var id="x29"> 2 4 5 12 </var>
    <var id="x30"> 2 4 5 8 12 </var>
    <var id="x31"> 0 3 12 </var>
    <var id="x32"> 0 4 5 12 </var>
    <var id="x33"> 4 5 8 12 </var>
    <var id="x34"> 0 2..4 </var>
    <var id="x35"> 0 5 9 14 </var>
    <var id="x36"> 0 8 9 </var>
    <var id="x37"> 9 13 14 </var>
    <var id="x38"> 5 7 14 </var>
    <var id="x39"> 0 5 7 13 </var>
    <var id="x40"> 5 8 9 </var>
    <var id="x41"> 0 8 14 </var>
    <var id="x42"> 5 9 12 </var>
    <var id="x43"> 5 7 10 </var>
    <var id="x44"> 4 5 8..10 12 </var>
    <var id="x45"> 4 5 7 8 12 </var>
    <var id="x46"> 4 5 7 12 </var>
    <var id="x47"> 4 5 7 8 </var>
    <var id="x48"> 4 7 9 10 </var>
    <var id="x49"> 1..3 5 </var>
    <var id="x50"> 2 3 5 12 </var>
    <var id="x51"> 2 5 12 </var>
    <var id="x52"> 0 5 12 13 </var>
    <var id="x53"> 1 5 12 </var>
    <var id="x54"> 0 12 </var>
    <var id="x55"> 1 2 5 13 </var>
    <var id="x56"> 6 8 9 11 </var>
    <var id="x57"> 3 8 9 </var>
    <var id="x58"> 3 6 8 </var>
    <var id="x59"> 3 6 9 14 </var>
    <var id="x60"> 6 7 </var>
    <var id="x61"> 6 8 11 14 </var>
    <var id="x62"> 7 8 11 14 </var>
    <var id="x63"> 4 6 9 12 </var>
    <var id="x64"> 9 10 12 13 </var>
    <var id="x65"> 1 10 </var>
    <var id="x66"> 4 6 12 </var>
    <var id="x67"> 4 </var>
    <var id="x68"> 1 9 13 </var>
    <var id="x69"> 4 9 10 </var>
    <var id="x70"> 0 12 14 </var>
    <var id="x71"> 2 4 12 14 </var>
    <var id="x72"> 4 8 10 12 </var>
    <var id="x73"> 0 10 12 14 </var>
    <var id="x74"> 4 8 12 </var>
    <var id="x75"> 2 8 </var>
    <var id="x76"> 0 2 4 10 </var>
    <var id="x77"> 2 4 6 12 </var>
    <var id="x78"> 2 6 10 12 </var>
    <var id="x79"> 2 4 12 </var>
    <var id="x80"> 0 6 9 10 12 </var>
    <var id="x81"> 0 4 6 12 </var>
    <var id="x82"> 4 9 12 </var>
    <var id="x83"> 0 4 </var>
    <var id="x84"> 2 3 9 </var>
    <var id="x85"> 2 5 6 </var>
    <var id="x86"> 2 3 5 6 </var>
    <var id="x87"> 0 3 6 9 </var>
    <var id="x88"> 0 5 7 </var>
    <var id="x89"> 2 5 7 9 </var>
    <var id="x90"> 0 2 3 7 9 </var>
    <var id="x91"> 2 4 5 12 14 </var>
    <var id="x92"> 4 5 9 12 </var>
    <var id="x93"> 2 5 12 </var>
    <var as="x91" id="x94"/>
    <var id="x95"> 4 5 9 11 12 </var>
    <var id="x96"> 2 5 9 </var>
    <var id="x97"> 2 4 9 11 </var>
    <var id="x98"> 3 5 11 12 14 </var>
    <var id="x99"> 2 3 10 12 14 </var>
    <var id="x100"> 2 3 5 10 14 </var>
    <var id="x101"> 2 3 5 8 10 12 </var>
    <var id="x102"> 2 5 8 12 14 </var>
    <var id="x103"> 3 10 12 14 </var>
    <var id="x104"> 8 11 12 14 </var>
    <var id="x105"> 5 8 11 14 </var>
  </variables>
  <constraints>
    <group>
      <allDifferent> %... </allDifferent>
      <args> x0 x1 x2 x3 x4 x5 x6 </args>
      <args> x7 x8 x9 x10 x11 x12 x13 </args>
      <args> x14 x15 x16 x17 x18 x19 x20 </args>
      <args> x21 x22 x23 x24 x25 x26 x27 </args>
      <args> x28 x29 x30 x31 x32 x33 x34 </args>
      <args> x35 x36 x37 x38 x39 x40 x41 </args>
      <args> x42 x43 x44 x45 x46 x47 x48 </args>
      <args> x49 x50 x51 x52 x53 x54 x55 </args>
      <args> x56 x57 x58 x59 x60 x61 x62 </args>
      <args> x63 x64 x65 x66 x67 x68 x69 </args>
      <args> x70 x71 x72 x73 x74 x75 x76 </args>
      <args> x77 x78 x79 x80 x81 x82 x83 </args>
      <args> x84 x85 x86 x87 x88 x89 x90 </args>
      <args> x91 x92 x93 x94 x95 x96 x97 </args>
      <args> x98 x99 x100 x101 x102 x103 x104 x105 </args>
      <args> x0 x7 x21 x35 x42 x70 x98 </args>
      <args> x8 x14 x22 x28 x36 x56 x63 </args>
      <args> x9 x15 x23 x37 x64 x84 x99 </args>
      <args> x1 x10 x29 x71 x77 x85 x91 </args>
      <args> x2 x16 x38 x43 x49 x65 x100 </args>
      <args> x3 x17 x24 x44 x57 x72 x92 </args>
      <args> x11 x50 x58 x78 x86 x93 x101 </args>
      <args> x25 x30 x45 x51 x79 x94 x102 </args>
      <args> x4 x31 x59 x73 x80 x87 x103 </args>
      <args> x26 x32 x39 x46 x52 x60 x81 </args>
      <args> x18 x33 x40 x53 x74 x82 x95 </args>
      <args> x19 x27 x41 x54 x61 x66 x104 </args>
      <args> x12 x47 x62 x67 x83 x88 x105 </args>
      <args> x5 x13 x55 x68 x75 x89 x96 </args>
      <args> x6 x20 x34 x48 x69 x76 x90 x97 </args>
    </group>
  </constraints>
</instance>

